p wcnf 192 432 433
1 2 4 3 1 0
1 5 7 6 1 0
1 5 9 8 2 0
1 13 15 14 1 0
1 13 17 16 2 0
1 13 22 21 5 0
1 33 35 34 1 0
1 33 37 36 2 0
1 33 42 41 5 0
1 33 54 53 13 0
1 81 83 82 1 0
1 81 85 84 2 0
1 81 90 89 5 0
1 81 102 101 13 0
1 81 130 129 33 0
1 6 11 10 3 0
1 14 19 18 3 0
1 14 24 23 6 0
1 34 39 38 3 0
1 34 44 43 6 0
1 34 56 55 14 0
1 82 87 86 3 0
1 82 92 91 6 0
1 82 104 103 14 0
1 82 132 131 34 0
1 8 12 10 4 0
1 16 20 18 4 0
1 16 27 26 8 0
1 36 40 38 4 0
1 36 47 46 8 0
1 36 59 58 16 0
1 84 88 86 4 0
1 84 95 94 8 0
1 84 107 106 16 0
1 84 135 134 36 0
1 18 30 29 10 0
1 38 50 49 10 0
1 38 62 61 18 0
1 86 98 97 10 0
1 86 110 109 18 0
1 86 138 137 38 0
1 9 12 11 7 0
1 21 25 23 7 0
1 21 28 26 9 0
1 41 45 43 7 0
1 41 48 46 9 0
1 41 66 65 21 0
1 89 93 91 7 0
1 89 96 94 9 0
1 89 114 113 21 0
1 89 142 141 41 0
1 23 31 29 11 0
1 43 51 49 11 0
1 43 69 68 23 0
1 91 99 97 11 0
1 91 117 116 23 0
1 91 145 144 43 0
1 26 32 29 12 0
1 46 52 49 12 0
1 46 73 72 26 0
1 94 100 97 12 0
1 94 121 120 26 0
1 94 149 148 46 0
1 49 77 76 29 0
1 97 125 124 29 0
1 97 153 152 49 0
1 17 20 19 15 0
1 22 25 24 15 0
1 22 28 27 17 0
1 53 57 55 15 0
1 53 60 58 17 0
1 53 67 65 22 0
1 101 105 103 15 0
1 101 108 106 17 0
1 101 115 113 22 0
1 101 158 157 53 0
1 24 31 30 19 0
1 55 63 61 19 0
1 55 70 68 24 0
1 103 111 109 19 0
1 103 118 116 24 0
1 103 161 160 55 0
1 27 32 30 20 0
1 58 64 61 20 0
1 58 74 72 27 0
1 106 112 109 20 0
1 106 122 120 27 0
1 106 165 164 58 0
1 61 78 76 30 0
1 109 126 124 30 0
1 109 169 168 61 0
1 28 32 31 25 0
1 65 71 68 25 0
1 65 75 72 28 0
1 113 119 116 25 0
1 113 123 120 28 0
1 113 174 173 65 0
1 68 79 76 31 0
1 116 127 124 31 0
1 116 178 177 68 0
1 72 80 76 32 0
1 120 128 124 32 0
1 120 183 182 72 0
1 124 188 187 76 0
1 37 40 39 35 0
1 42 45 44 35 0
1 42 48 47 37 0
1 54 57 56 35 0
1 54 60 59 37 0
1 54 67 66 42 0
1 129 133 131 35 0
1 129 136 134 37 0
1 129 143 141 42 0
1 129 159 157 54 0
1 44 51 50 39 0
1 56 63 62 39 0
1 56 70 69 44 0
1 131 139 137 39 0
1 131 146 144 44 0
1 131 162 160 56 0
1 47 52 50 40 0
1 59 64 62 40 0
1 59 74 73 47 0
1 134 140 137 40 0
1 134 150 148 47 0
1 134 166 164 59 0
1 62 78 77 50 0
1 137 154 152 50 0
1 137 170 168 62 0
1 48 52 51 45 0
1 66 71 69 45 0
1 66 75 73 48 0
1 141 147 144 45 0
1 141 151 148 48 0
1 141 175 173 66 0
1 69 79 77 51 0
1 144 155 152 51 0
1 144 179 177 69 0
1 73 80 77 52 0
1 148 156 152 52 0
1 148 184 182 73 0
1 152 189 187 77 0
1 60 64 63 57 0
1 67 71 70 57 0
1 67 75 74 60 0
1 157 163 160 57 0
1 157 167 164 60 0
1 157 176 173 67 0
1 70 79 78 63 0
1 160 171 168 63 0
1 160 180 177 70 0
1 74 80 78 64 0
1 164 172 168 64 0
1 164 185 182 74 0
1 168 190 187 78 0
1 75 80 79 71 0
1 173 181 177 71 0
1 173 186 182 75 0
1 177 191 187 79 0
1 182 192 187 80 0
1 85 88 87 83 0
1 90 93 92 83 0
1 90 96 95 85 0
1 102 105 104 83 0
1 102 108 107 85 0
1 102 115 114 90 0
1 130 133 132 83 0
1 130 136 135 85 0
1 130 143 142 90 0
1 130 159 158 102 0
1 92 99 98 87 0
1 104 111 110 87 0
1 104 118 117 92 0
1 132 139 138 87 0
1 132 146 145 92 0
1 132 162 161 104 0
1 95 100 98 88 0
1 107 112 110 88 0
1 107 122 121 95 0
1 135 140 138 88 0
1 135 150 149 95 0
1 135 166 165 107 0
1 110 126 125 98 0
1 138 154 153 98 0
1 138 170 169 110 0
1 96 100 99 93 0
1 114 119 117 93 0
1 114 123 121 96 0
1 142 147 145 93 0
1 142 151 149 96 0
1 142 175 174 114 0
1 117 127 125 99 0
1 145 155 153 99 0
1 145 179 178 117 0
1 121 128 125 100 0
1 149 156 153 100 0
1 149 184 183 121 0
1 153 189 188 125 0
1 108 112 111 105 0
1 115 119 118 105 0
1 115 123 122 108 0
1 158 163 161 105 0
1 158 167 165 108 0
1 158 176 174 115 0
1 118 127 126 111 0
1 161 171 169 111 0
1 161 180 178 118 0
1 122 128 126 112 0
1 165 172 169 112 0
1 165 185 183 122 0
1 169 190 188 126 0
1 123 128 127 119 0
1 174 181 178 119 0
1 174 186 183 123 0
1 178 191 188 127 0
1 183 192 188 128 0
1 136 140 139 133 0
1 143 147 146 133 0
1 143 151 150 136 0
1 159 163 162 133 0
1 159 167 166 136 0
1 159 176 175 143 0
1 146 155 154 139 0
1 162 171 170 139 0
1 162 180 179 146 0
1 150 156 154 140 0
1 166 172 170 140 0
1 166 185 184 150 0
1 170 190 189 154 0
1 151 156 155 147 0
1 175 181 179 147 0
1 175 186 184 151 0
1 179 191 189 155 0
1 184 192 189 156 0
1 167 172 171 163 0
1 176 181 180 163 0
1 176 186 185 167 0
1 180 191 190 171 0
1 185 192 190 172 0
1 186 192 191 181 0
1 -1 0
1 -2 0
1 -3 0
1 -4 0
1 -5 0
1 -6 0
1 -7 0
1 -8 0
1 -9 0
1 -10 0
1 -11 0
1 -12 0
1 -13 0
1 -14 0
1 -15 0
1 -16 0
1 -17 0
1 -18 0
1 -19 0
1 -20 0
1 -21 0
1 -22 0
1 -23 0
1 -24 0
1 -25 0
1 -26 0
1 -27 0
1 -28 0
1 -29 0
1 -30 0
1 -31 0
1 -32 0
1 -33 0
1 -34 0
1 -35 0
1 -36 0
1 -37 0
1 -38 0
1 -39 0
1 -40 0
1 -41 0
1 -42 0
1 -43 0
1 -44 0
1 -45 0
1 -46 0
1 -47 0
1 -48 0
1 -49 0
1 -50 0
1 -51 0
1 -52 0
1 -53 0
1 -54 0
1 -55 0
1 -56 0
1 -57 0
1 -58 0
1 -59 0
1 -60 0
1 -61 0
1 -62 0
1 -63 0
1 -64 0
1 -65 0
1 -66 0
1 -67 0
1 -68 0
1 -69 0
1 -70 0
1 -71 0
1 -72 0
1 -73 0
1 -74 0
1 -75 0
1 -76 0
1 -77 0
1 -78 0
1 -79 0
1 -80 0
1 -81 0
1 -82 0
1 -83 0
1 -84 0
1 -85 0
1 -86 0
1 -87 0
1 -88 0
1 -89 0
1 -90 0
1 -91 0
1 -92 0
1 -93 0
1 -94 0
1 -95 0
1 -96 0
1 -97 0
1 -98 0
1 -99 0
1 -100 0
1 -101 0
1 -102 0
1 -103 0
1 -104 0
1 -105 0
1 -106 0
1 -107 0
1 -108 0
1 -109 0
1 -110 0
1 -111 0
1 -112 0
1 -113 0
1 -114 0
1 -115 0
1 -116 0
1 -117 0
1 -118 0
1 -119 0
1 -120 0
1 -121 0
1 -122 0
1 -123 0
1 -124 0
1 -125 0
1 -126 0
1 -127 0
1 -128 0
1 -129 0
1 -130 0
1 -131 0
1 -132 0
1 -133 0
1 -134 0
1 -135 0
1 -136 0
1 -137 0
1 -138 0
1 -139 0
1 -140 0
1 -141 0
1 -142 0
1 -143 0
1 -144 0
1 -145 0
1 -146 0
1 -147 0
1 -148 0
1 -149 0
1 -150 0
1 -151 0
1 -152 0
1 -153 0
1 -154 0
1 -155 0
1 -156 0
1 -157 0
1 -158 0
1 -159 0
1 -160 0
1 -161 0
1 -162 0
1 -163 0
1 -164 0
1 -165 0
1 -166 0
1 -167 0
1 -168 0
1 -169 0
1 -170 0
1 -171 0
1 -172 0
1 -173 0
1 -174 0
1 -175 0
1 -176 0
1 -177 0
1 -178 0
1 -179 0
1 -180 0
1 -181 0
1 -182 0
1 -183 0
1 -184 0
1 -185 0
1 -186 0
1 -187 0
1 -188 0
1 -189 0
1 -190 0
1 -191 0
1 -192 0
